p cnf 148 496
c t mc
4 2 0
4 3 0
-2 -3 -4 0
-5 1 0
-5 4 0
-1 -4 5 0
-8 -7 0
-8 -2 0
7 2 8 0
-11 9 0
-11 -10 0
-9 10 11 0
12 8 0
12 -11 0
-8 11 -12 0
-6 12 -13 0
6 -12 -13 0
-6 -12 13 0
6 12 13 0
-14 -5 0
-14 -13 0
5 13 14 0
-16 -6 -17 0
16 6 -17 0
-16 6 17 0
16 -6 17 0
-18 -15 0
-18 17 0
15 -17 18 0
-19 20 -21 0
19 -20 -21 0
-19 -20 21 0
19 20 21 0
22 12 0
22 21 0
-12 -21 -22 0
-23 -18 0
-23 22 0
18 -22 23 0
26 -24 0
26 -25 0
24 25 -26 0
-27 -20 0
-27 24 0
20 -24 27 0
-27 11 -28 0
27 -11 -28 0
-27 -11 28 0
27 11 28 0
-26 28 -29 0
26 -28 -29 0
-26 -28 29 0
26 28 29 0
23 -29 -30 0
-23 29 -30 0
23 29 30 0
-23 -29 30 0
-32 -21 0
-32 -31 0
21 31 32 0
-27 -32 -33 0
27 32 -33 0
-27 32 33 0
27 -32 33 0
36 34 0
36 -35 0
-34 35 -36 0
-37 -33 0
-37 -36 0
33 36 37 0
38 30 0
38 -37 0
-30 37 -38 0
39 -14 0
39 38 0
14 -38 -39 0
-40 2 0
-40 -10 0
-2 10 40 0
41 -6 0
41 -40 0
6 40 -41 0
-42 41 0
-42 15 0
-41 -15 42 0
-43 22 0
-43 19 0
-22 -19 43 0
-42 -43 -44 0
42 43 -44 0
-42 43 44 0
42 -43 44 0
-45 -7 0
-45 8 0
7 -8 45 0
-46 -45 0
-46 36 0
45 -36 46 0
-24 46 -47 0
24 -46 -47 0
-24 -46 47 0
24 46 47 0
-48 22 0
-48 -47 0
-22 47 48 0
48 49 0
-48 49 0
27 25 -50 0
-27 -25 -50 0
27 -25 50 0
-27 25 50 0
51 -50 0
51 -19 0
50 19 -51 0
-52 -49 0
-52 51 0
49 -51 52 0
53 12 0
53 7 0
-12 -7 -53 0
54 11 0
54 -8 0
-11 8 -54 0
55 -53 0
55 54 0
53 -54 -55 0
56 -20 0
56 -27 0
20 27 -56 0
-35 -56 -57 0
35 56 -57 0
-35 56 57 0
35 -56 57 0
58 -55 0
58 57 0
55 -57 -58 0
60 -43 0
60 -59 0
43 59 -60 0
-8 61 -62 0
8 -61 -62 0
-8 -61 62 0
8 61 62 0
62 -53 -63 0
-62 53 -63 0
62 53 63 0
-62 -53 63 0
-64 -60 0
-64 -63 0
60 63 64 0
65 58 0
65 -64 0
-58 64 -65 0
66 -21 0
66 -21 0
21 -66 0
-68 -66 0
-68 -67 0
66 67 68 0
-69 2 0
-69 16 0
-2 -16 69 0
-70 -69 0
-70 27 0
69 -27 70 0
-71 68 0
-71 -70 0
-68 70 71 0
-72 -3 0
-72 25 0
3 -25 72 0
-73 -72 0
-73 -61 0
72 61 73 0
73 74 -75 0
-73 -74 -75 0
73 -74 75 0
-73 74 75 0
-75 53 -76 0
75 -53 -76 0
-75 -53 76 0
75 53 76 0
77 76 0
77 -2 0
-76 2 -77 0
78 -56 0
78 62 0
56 -62 -78 0
-74 -78 -79 0
74 78 -79 0
-74 78 79 0
74 -78 79 0
80 -77 0
80 79 0
77 -79 -80 0
15 -10 -81 0
-15 10 -81 0
15 10 81 0
-15 -10 81 0
83 6 0
83 -82 0
-6 82 -83 0
-84 -81 0
-84 83 0
81 -83 84 0
80 -84 -85 0
-80 84 -85 0
80 84 85 0
-80 -84 85 0
-87 11 0
-87 86 0
-11 -86 87 0
88 26 0
88 7 0
-26 -7 -88 0
-89 -61 0
-89 -66 0
61 66 89 0
90 -89 0
90 -56 0
89 56 -90 0
91 -67 0
91 -90 0
67 90 -91 0
-18 91 -92 0
18 -91 -92 0
-18 -91 92 0
18 91 92 0
93 88 0
93 -92 0
-88 92 -93 0
-87 -93 -94 0
87 93 -94 0
-87 93 94 0
87 -93 94 0
-85 -94 -95 0
85 94 -95 0
-85 94 95 0
85 -94 95 0
-71 95 -96 0
71 -95 -96 0
-71 -95 96 0
71 95 96 0
97 -67 0
97 90 0
67 -90 -97 0
98 72 0
98 11 0
-72 -11 -98 0
-99 97 0
-99 -98 0
-97 98 99 0
-100 32 0
-100 25 0
-32 -25 100 0
101 100 0
101 -32 0
-100 32 -101 0
102 72 0
102 -3 0
-72 3 -102 0
-32 -102 -103 0
32 102 -103 0
-32 102 103 0
32 -102 103 0
104 73 0
104 -8 0
-73 8 -104 0
-103 -104 -105 0
103 104 -105 0
-103 104 105 0
103 -104 105 0
-101 105 -106 0
101 -105 -106 0
-101 -105 106 0
101 105 106 0
107 -99 0
107 106 0
99 -106 -107 0
108 -96 0
108 107 0
96 -107 -108 0
-65 108 -109 0
65 -108 -109 0
-65 -108 109 0
65 108 109 0
-110 -52 0
-110 -109 0
52 109 110 0
-111 44 0
-111 -110 0
-44 110 111 0
-112 35 0
-112 -74 0
-35 74 112 0
-113 -48 0
-113 -2 0
48 2 113 0
-50 -113 -114 0
50 113 -114 0
-50 113 114 0
50 -113 114 0
115 61 0
115 -62 0
-61 62 -115 0
114 -115 -116 0
-114 115 -116 0
114 115 116 0
-114 -115 116 0
-117 -112 0
-117 116 0
112 -116 117 0
-118 91 0
-118 -24 0
-91 24 118 0
-119 34 0
-119 2 0
-34 -2 119 0
120 -119 0
120 -3 0
119 3 -120 0
121 -9 0
121 -34 0
9 34 -121 0
-122 -2 0
-122 -21 0
2 21 122 0
-123 121 0
-123 122 0
-121 -122 123 0
-124 120 0
-124 -123 0
-120 123 124 0
-125 118 0
-125 124 0
-118 -124 125 0
126 45 0
126 6 0
-45 -6 -126 0
126 72 -127 0
-126 -72 -127 0
126 -72 127 0
-126 72 127 0
-127 -78 -128 0
127 78 -128 0
-127 78 128 0
127 -78 128 0
-45 128 -129 0
45 -128 -129 0
-45 -128 129 0
45 128 129 0
-40 -17 -130 0
40 17 -130 0
-40 17 130 0
40 -17 130 0
-131 28 0
-131 130 0
-28 -130 131 0
129 -131 -132 0
-129 131 -132 0
129 131 132 0
-129 -131 132 0
125 -132 -133 0
-125 132 -133 0
125 132 133 0
-125 -132 133 0
134 -47 0
134 18 0
47 -18 -134 0
135 133 0
135 -134 0
-133 134 -135 0
-136 -117 0
-136 -135 0
117 135 136 0
-35 -20 -137 0
35 20 -137 0
-35 20 137 0
35 -20 137 0
138 -128 0
138 127 0
128 -127 -138 0
137 138 -139 0
-137 -138 -139 0
137 -138 139 0
-137 138 139 0
140 -4 0
140 26 0
4 -26 -140 0
-141 -139 0
-141 140 0
139 -140 141 0
-136 141 -142 0
136 -141 -142 0
-136 -141 142 0
136 141 142 0
143 45 0
143 -31 0
-45 31 -143 0
54 32 -144 0
-54 -32 -144 0
54 -32 144 0
-54 32 144 0
-145 143 0
-145 144 0
-143 -144 145 0
-142 -145 -146 0
142 145 -146 0
-142 145 146 0
142 -145 146 0
-147 111 0
-147 -146 0
-111 146 147 0
148 39 0
148 -147 0
-39 147 -148 0
83 -48 5 -67 -58 -39 0
-122 -31 -104 18 26 7 -68 111 -108 0
-104 45 -48 -95 54 0
-135 -12 -113 98 110 -144 48 19 17 0
-35 -80 135 56 0
28 134 114 -48 91 -33 0
-115 2 -69 -29 0
28 75 -6 42 -86 -63 -135 12 130 11 0
-72 -147 122 94 -110 -74 120 0
37 -51 -47 52 88 -80 8 -14 98 -131 0
95 -116 -29 -62 -136 81 0
89 85 -53 -49 71 15 0
87 -5 13 99 0
122 -128 66 -129 -101 86 115 -47 0
-69 -67 14 -143 -146 90 0
-113 -81 -66 55 -95 0
24 -139 101 -41 0
-74 34 -139 -43 0
-19 70 56 0
-56 -9 -137 -140 0
84 11 135 -127 148 0
-104 -68 134 0
123 -99 -113 107 -62 0
5 8 -1 -11 -22 -62 -82 65 63 0
-15 48 2 -84 63 -103 36 0
1 33 -137 41 -110 17 -15 0
123 50 -5 10 -135 -56 114 104 98 -25 0
135 89 92 126 -18 0
-7 -116 102 3 0
-10 -143 40 -90 -56 -102 0
-82 8 -124 0
111 -78 -98 49 20 113 69 -114 -122 0
90 85 137 -9 -87 -37 0
-51 -32 120 68 55 0
8 -14 12 104 78 119 -92 0
47 -74 2 0
-73 117 124 5 0
59 -125 -84 136 -121 -111 23 -20 0
17 -34 134 7 129 42 39 -3 53 140 0
-77 34 111 -71 -148 2 47 49 0
16 -89 20 0
-22 98 -89 44 121 -117 -48 -108 -52 0
120 -19 -107 86 -10 138 123 142 -47 0
-136 3 -40 -114 -2 71 112 0
86 -7 16 79 -50 105 143 -83 -113 0
-134 -21 56 -37 -87 120 11 -19 -139 -54 0
53 23 134 -8 40 -82 0
-42 -98 58 75 -146 -66 93 33 0
-31 116 -59 -66 70 0
14 62 -8 74 59 146 73 -96 -137 0
11 41 71 90 4 -106 81 0
-34 33 -106 -46 -73 -94 87 125 0
32 132 -87 26 24 98 76 -34 0
-88 84 22 0
-128 -147 36 -45 0
62 -45 36 102 -15 -37 -38 -24 -86 0
-12 -21 -139 -42 0
-53 -143 39 -24 0
-34 -51 26 -106 60 -39 -81 4 147 -114 0
-87 105 -41 -83 136 82 0
-23 64 115 0
-66 42 36 67 -88 27 0
20 44 68 -28 141 55 -7 52 0
-32 -120 -54 -147 -75 0
139 146 69 -68 0
-72 -36 -128 -75 -100 -121 -70 0
-101 -42 -29 0
83 -36 -41 38 -63 -78 34 -39 0
58 -8 -90 -82 -76 -25 17 0
28 -7 -75 0
104 26 60 -64 75 -7 27 -76 -2 -91 0
-66 -107 -139 -79 20 -52 -58 -68 133 0
37 54 -92 -134 -6 58 0
-80 13 83 0
139 121 -20 53 56 120 -26 0
-62 36 18 137 -78 -20 -22 -123 -63 0
127 -81 35 142 0
10 141 -135 -2 12 -114 129 -31 51 0
-10 7 52 75 96 -66 99 -136 50 0
148 0
